7139933841216392445502,15,1,2,05,1,1,2,07,11,1,2,03,15,1,2,010,1,1,2,08,7,1,2,010,15,1,2,04,11,1,2,015,8,1,2,02,14,1,2,04,14,1,2,09,5,1,2,09,15,1,2,010,3,1,2,02,7,1,2,010,14,1,2,06,13,1,2,05,15,1,2,09,14,1,2,013,9,1,2,015,4,1,2,012,9,1,2,09,14,1,2,013,7,1,2,07,15,1,2,012,15,1,2,01,2,1,2,010,10,1,2,013,4,1,2,08,2,1,2,07,11,1,2,06,6,1,2,04,14,1,2,05,11,1,2,05,1,1,2,08,14,1,2,015,9,1,2,02,1,1,2,04,11,1,2,011,3,1,2,01,13,1,2,06,1,1,2,015,1,1,2,011,2,1,2,07,7,1,2,012,10,1,2,013,1,1,2,01,8,1,2,08,7,1,2,015,10,1,2,0